########## Initialization ##########

shell rm -rf dump
shell mkdir dump

restart 100 rst.1 rst.2

neighbor                2.0 bin
neigh_modify            delay 1 every 1 check yes

units		real
atom_style	full
boundary 	p p p 

########## build model ##########

read_data    water_box.data

########## Create regions and groups ##########

group  solid    type 1  
group  water  type 2 3

########## Potential function ##########

mass   1  12.011150 # c
mass   2  15.999400 # o*
mass   3   1.008000 # h*

set type 2 charge  -1.0484
set type 3 charge   0.5242

pair_style     hybrid tersoff lj/cut/coul/long 12.0 10.0 lj/cut/tip4p/long 2 3 2 2 0.125 12.0 10.0
pair_modify    tail yes mix geometric

bond_style     harmonic 
angle_style    harmonic
special_bonds  lj/coul 0.0 0.0 0.5 
kspace_style   pppm/tip4p 1e-4

pair_coeff     * * tersoff ./BNC.tersoff_real C NULL NULL

pair_coeff	2 2 lj/cut/tip4p/long 0.16275 3.16435
pair_coeff	2 3 lj/cut/tip4p/long 0.00000 0.00000
pair_coeff	3 3 lj/cut/tip4p/long 0.00000 0.00000

pair_coeff 1 3 lj/cut/coul/long  0.00000000     0.000  # H and C
pair_coeff 1 2 lj/cut/coul/long  0.15765786     3.317  # O and C

bond_coeff   1   322.7158     1.5260
bond_coeff   2   0.0          0.9572

angle_coeff  1   46.6000      110.5000
angle_coeff  2   0.0          104.52

########## Configuration setting ##########

fix tether    solid  spring/self 150
fix constrain water shake 1.0e-4 20 10 b 2 a 2

compute		ke water ke/atom
variable	temp atom c_ke/1.5
compute     layers water chunk/atom bin/1d z lower 0.01 units reduced

########## Equilibration ##########

timestep 	     1.0

fix				 NVT water nvt temp  340 340 100
thermo           1000
thermo_style     custom step temp etotal ke pe  press  pxx pyy pzz   lx ly lz 
dump             1 all custom 1000  ./dump/nvt.lammpstrj id type x y z vx vy vz fx fy fz 
run				 1000000
unfix   	     NVT
write_restart    ./dump/nvt.rst
write_data       ./dump/nvt.data 
undump           1

fix				 NPT water npt temp  340 340 100 iso 1.0 1.0 1000
fix              NVT solid  nvt temp  340 340 100
thermo           1000
thermo_style     custom step temp etotal ke pe  press  pxx pyy pzz   lx ly lz 
dump             2 all custom 1000  ./dump/npt.lammpstrj id type x y z vx vy vz fx fy fz 
run				 1000000
unfix   	     NPT
unfix            NVT
write_restart    ./dump/npt.rst
write_data       ./dump/npt.data
undump           2

fix              NVE water nve
fix		         2 water ave/chunk 10 100 1000 layers density/mass temp ave running adof 2 file profile.temp
thermo           10000
thermo_style     custom step temp etotal ke pe  press  pxx pyy pzz   lx ly lz 
dump             3 all custom 100  ./dump/nve.lammpstrj id type x y z vx vy vz fx fy fz 
run				 500000
unfix   	     NVE
write_restart    ./dump/nve.rst
write_data       ./dump/nve.data
undump           3 

write_data       balance.data
