########## Initialization ##########

shell rm -rf dump
shell mkdir dump

restart 100 rst.1 rst.2

neighbor                2.0 bin
neigh_modify            delay 1 every 1 check yes

units		real
atom_style	full
boundary 	p p p 

########## build model ##########

read_restart    ../01_equ/rst.1

########## Potential function ##########

bond_style harmonic
angle_style harmonic
special_bonds lj/coul 0.0 0.0 0.5

pair_style lj/cut/coul/long 12.0 12.0
kspace_style pppm 1.0e-4

pair_coeff    1    1      0.210939     3.183950  # ODw ODw
pair_coeff    *   2*      0.000000     0.0

bond_coeff   1   517.630258     0.957200  # Ow-Hw
bond_coeff   2   500.000000     0.240340  # Ow-M
bond_coeff   3   500.000000     0.000000  # ODw DC-DP

angle_coeff  1    37.950526   104.520000  # Hw-Ow-Hw

group ATOMS type 1:3
group CORES type 1
group DRUDES type 4

variable TK equal 333.0
variable TDK equal 1.11
variable PBAR equal 1.0

fix DRUDE all drude C N N D

velocity ATOMS create ${TK} 12345
velocity DRUDES create ${TDK} 12345

comm_modify vel yes
compute TATOM ATOMS temp/com
compute TEMP all temp/drude

delete_bonds     ATOMS multi

########## Configuration setting ##########

compute		ke ATOMS ke/atom
compute		pe ATOMS pe/atom
variable	temp atom c_ke/1.5
compute     layers all chunk/atom bin/1d z lower 0.01 units reduced

########## Equilibration ##########

reset_timestep   0
timestep 	     1.0

fix		         2 all ave/chunk 10 100 1000 layers temp c_ke c_pe ave running adof 2 file profile.temp
fix              DIRECT all drude/transform/direct
fix              RIGID ATOMS rigid/nvt/small molecule temp ${TK} ${TK} 100
fix              NVT DRUDES nvt temp ${TDK} ${TDK} 100.0
fix              INVERSE all drude/transform/inverse
thermo           10000
thermo_style     custom step temp etotal press  pxx pyy pzz   lx ly lz 
dump             1 all custom 10000  ./dump/nvt.lammpstrj id type x y z vx vy vz fx fy fz 
run				 3000000
unfix            DIRECT
unfix            NVT
unfix            RIGID
unfix            INVERSE
unfix            2
write_restart    ./dump/nvt.rst
write_data       ./dump/nvt.data 
undump           1