########## Initialization ##########

shell rm -rf dump
shell mkdir dump

restart 100 rst.1 rst.2

neighbor                2.0 bin
neigh_modify            delay 1 every 1 check yes

units		real
atom_style	full
boundary 	p p p 

########## Potential function ##########

atom_style full
bond_style harmonic
angle_style harmonic
special_bonds lj/coul 0.0 0.0 0.5

pair_style lj/cut/coul/long 12.0 12.0
kspace_style pppm 1.0e-4

read_data swm4-ndp.data
replicate 2 2 2

change_box all z delta -40 60

pair_coeff    1    1      0.210939     3.183950  # ODw ODw
pair_coeff    *   2*      0.000000     0.0

write_data       init.data

########## Group setting ##########

group ATOMS type 1:3
group CORES type 1
group DRUDES type 4

########## Configuration setting ##########

variable TK equal 300.0
variable TDK equal 1.0
variable PBAR equal 1.0

fix DRUDE all drude C N N D

velocity ATOMS create ${TK} 12345
velocity DRUDES create ${TDK} 12345

comm_modify vel yes
compute TATOM ATOMS temp/com
compute TEMP all temp/drude

########## Equilibration ##########

timestep 	     1.0

# fix              SHAKE ATOMS shake 1e-4 20 0 b 1 2 a 1

delete_bonds     ATOMS multi

fix              DIRECT all drude/transform/direct
fix              RIGID ATOMS rigid/nvt/small molecule temp 300. 300. 100
fix              NVT DRUDES nvt temp 1. 1. 20
fix              INVERSE all drude/transform/inverse
thermo           1000
thermo_style     custom step temp etotal ke pe  press  pxx pyy pzz   lx ly lz 
dump             1 all custom 1000  ./dump/nvt.lammpstrj id type x y z vx vy vz fx fy fz 
run				 3000000
unfix            DIRECT
unfix            NVT
unfix            RIGID
unfix            INVERSE
write_restart    ./dump/nvt.rst
write_data       ./dump/nvt.data 
undump           1

write_data       balance.data
